
******************************************************************************
This program contains Ipopt, a library for large-scale nonlinear optimization.
 Ipopt is released as open source code under the Eclipse Public License (EPL).
         For more information visit http://projects.coin-or.org/Ipopt
******************************************************************************

This is Ipopt version 3.12.6, running with linear solver ma57.

Number of nonzeros in equality constraint Jacobian...:        0
Number of nonzeros in inequality constraint Jacobian.:        0
Number of nonzeros in Lagrangian Hessian.............:    15408

Total number of variables............................:     5184
                     variables with only lower bounds:        0
                variables with lower and upper bounds:     5184
                     variables with only upper bounds:        0
Total number of equality constraints.................:        0
Total number of inequality constraints...............:        0
        inequality constraints with only lower bounds:        0
   inequality constraints with lower and upper bounds:        0
        inequality constraints with only upper bounds:        0

iter    objective    inf_pr   inf_du lg(mu)  ||d||  lg(rg) alpha_du alpha_pr  ls
   0 -1.1529170e+00 0.00e+00 2.50e-02  -1.0 0.00e+00    -  0.00e+00 0.00e+00   0
   1 -9.8323620e-01 0.00e+00 2.84e-16  -1.7 1.98e-02    -  1.00e+00 1.00e+00f  1
   2 -9.1037161e-01 0.00e+00 1.75e-02  -2.5 1.05e-01    -  7.05e-01 1.00e+00f  1
   3 -9.1951268e-01 0.00e+00 1.42e-03  -3.8 2.04e-02    -  9.27e-01 1.00e+00f  1
   4 -9.8523960e-01 0.00e+00 2.15e-03  -5.7 2.02e-02    -  8.16e-01 1.00e+00f  1
   5 -1.1146265e+00 0.00e+00 2.41e-03  -5.7 2.95e-02    -  7.45e-01 1.00e+00f  1
   6 -1.1822000e+00 0.00e+00 3.99e-04  -5.7 1.79e-02    -  9.24e-01 1.00e+00f  1
   7 -1.1956479e+00 0.00e+00 1.71e-16  -5.7 5.29e-03    -  1.00e+00 1.00e+00f  1
   8 -1.2020829e+00 0.00e+00 1.82e-04  -8.6 5.52e-03    -  9.39e-01 7.65e-01f  1
   9 -1.2035512e+00 0.00e+00 2.30e-04  -8.6 2.24e-03    -  1.00e+00 6.98e-01f  1
iter    objective    inf_pr   inf_du lg(mu)  ||d||  lg(rg) alpha_du alpha_pr  ls
  10 -1.2040626e+00 0.00e+00 1.14e-04  -8.6 9.95e-04    -  1.00e+00 7.89e-01f  1
  11 -1.2041836e+00 0.00e+00 4.04e-05  -8.6 2.93e-04    -  1.00e+00 8.87e-01f  1
  12 -1.2042004e+00 0.00e+00 1.65e-16  -8.6 9.69e-05    -  1.00e+00 1.00e+00f  1
  13 -1.2042059e+00 0.00e+00 1.66e-16  -9.0 3.83e-05    -  1.00e+00 1.00e+00f  1

Number of Iterations....: 13

                                   (scaled)                 (unscaled)
Objective...............:  -1.2042059279963704e+00   -1.2042059279963704e+00
Dual infeasibility......:   1.6642848778276295e-16    1.6642848778276295e-16
Constraint violation....:   0.0000000000000000e+00    0.0000000000000000e+00
Complementarity.........:   5.3164715628060910e-09    5.3164715628060910e-09
Overall NLP error.......:   5.3164715628060910e-09    5.3164715628060910e-09


Number of objective function evaluations             = 14
Number of objective gradient evaluations             = 14
Number of equality constraint evaluations            = 0
Number of inequality constraint evaluations          = 0
Number of equality constraint Jacobian evaluations   = 0
Number of inequality constraint Jacobian evaluations = 0
Number of Lagrangian Hessian evaluations             = 13
Total CPU secs in IPOPT (w/o function evaluations)   =      0.090
Total CPU secs in NLP function evaluations           =      0.097

EXIT: Optimal Solution Found.
Note: The following floating-point exceptions are signalling: IEEE_UNDERFLOW_FLAG IEEE_DENORMAL

 ** SUBROUTINE CUTEST_csetup: Warning. The problem has no general constraints. 
 ** Other tools may be preferable ** 

************************ CUTEst statistics ************************


 Package used            :  IPOPT
 Problem                 :  TORSIONC  
 # variables             =            5476
 # constraints           =               0
 # objective functions   =        0.2900000E+02
 # objective gradients   =        0.1500000E+02
 # objective Hessians    =        0.1400000E+02
 # Hessian-vector prdct  =        0.0000000E+00
 # constraints functions =        0.0000000E+00
 # constraints gradients =        0.0000000E+00
 # constraints Hessians  =        0.0000000E+00
 Exit code               =               0
 Final f                 =  -0.1204206E+01
 Set up time             =            0.20 seconds
 Solve time              =            0.27 seconds


******************************************************************

System Time =       0.1819999963 s.
